951, 0, 0, 89, 1
952, 0, 1, 43, 2
953, 0, 2, 73, 0
954, 0, 3, 46, 4
955, 0, 4, 87, 3
956, 1, 0, 83, 3
957, 1, 1, 53, 4
958, 1, 2, 70, 1
959, 1, 3, 37, 0
960, 1, 4, 59, 2
961, 2, 0, 42, 2
962, 2, 1, 73, 0
963, 2, 2, 64, 4
964, 2, 3, 77, 3
965, 2, 4, 79, 1
966, 3, 0, 71, 1
967, 3, 1, 50, 4
968, 3, 2, 47, 2
969, 3, 3, 43, 0
970, 3, 4, 33, 3
